Problem:    
Rows:       260
Columns:    89 (72 integer, 72 binary)
Non-zeros:  974
Status:     INTEGER OPTIMAL
Objective:  value = 6.0683 (MINimum)

   No.   Row name        Activity     Lower bound   Upper bound
------ ------------    ------------- ------------- -------------
     1 r.5                   1006.07             0               
     2 r.6                  -998.728       -999.01               
     3 r.7                    6.0683             0               
     4 r.8                    1.7025      -991.983               
     5 r.9                   1006.07             0               
     6 r.10                 -995.709      -999.042               
     7 r.11                   6.0683             0               
     8 r.12                   4.2915      -992.258               
     9 r.13                  1006.07             0               
    10 r.14                 -999.838      -999.909               
    11 r.15                   6.0683             0               
    12 r.16                   1.7025      -998.787               
    13 r.17                  1006.07             0               
    14 r.18                 -999.718      -999.881               
    15 r.19                   6.0683             0               
    16 r.20                   4.2915       -998.14               
    17 r.21                  1006.07             0               
    18 r.22                 -998.298      -999.569               
    19 r.23                   6.0683             0               
    20 r.24                   1.7025      -996.144               
    21 r.25                  1006.07             0               
    22 r.26                 -999.928      -999.928               
    23 r.27                   6.0683             0               
    24 r.28                  -998.99       -998.99               
    25 r.29                  1006.07             0               
    26 r.30                 -993.932      -998.223               
    27 r.31                   6.0683             0               
    28 r.32                   6.0683      -996.633               
    29 r.33                  1006.07             0               
    30 r.34                 -996.667      -998.369               
    31 r.35                   6.0683             0               
    32 r.36                   6.0683      -996.906               
    33 r.37                        1             1             = 
    34 r.38                        1             1             = 
    35 r.39                        1             1             = 
    36 r.40                        1             1             = 
    37 r.41                        1             1             = 
    38 r.42                        1             1             = 
    39 r.43                        1             1             = 
    40 r.44                        1             1             = 
    41 r.45                        2             2               
    42 r.46                       -2         -1001               
    43 r.47                  -996.98      -999.042               
    44 r.48                     1000             2               
    45 r.49                    -1000         -1001               
    46 r.50                  2002.59      -992.258               
    47 r.51                        2             2               
    48 r.52                       -2         -1001               
    49 r.53                  -1.1091      -999.909               
    50 r.54                     1000             2               
    51 r.55                    -1000         -1001               
    52 r.56                     2000      -998.787               
    53 r.57                        2             2               
    54 r.58                       -2         -1001               
    55 r.59                -0.989978      -999.881               
    56 r.60                     1000             2               
    57 r.61                    -1000         -1001               
    58 r.62                  2002.59       -998.14               
    59 r.63                        2             2               
    60 r.64                       -2         -1001               
    61 r.65                 -999.569      -999.569               
    62 r.66                     1000             2               
    63 r.67                    -1000         -1001               
    64 r.68                     2000      -996.144               
    65 r.69                   -998.8       -999.01               
    66 r.70                  1.63083      -991.983               
    67 r.71                 0.261956       -999.01               
    68 r.72                  1000.69      -991.983               
    69 r.73                 -995.203      -998.223               
    70 r.74                  4.79674      -996.633               
    71 r.75                 -995.634      -998.223               
    72 r.76                   4.3658      -996.633               
    73 r.77                 -997.938      -998.369               
    74 r.78                  4.79674      -996.906               
    75 r.79                 -998.369      -998.369               
    76 r.80                   4.3658      -996.906               
    77 r.81                        2             2               
    78 r.82                       -2         -1001               
    79 r.83                   996.98      0.989978               
    80 r.84                     1000             2               
    81 r.85                    -1000         -1001               
    82 r.86                  1997.41       8.01657               
    83 r.87                        2             2               
    84 r.88                       -2         -1001               
    85 r.89                 -4.12904      -999.909               
    86 r.90                     1000             2               
    87 r.91                    -1000         -1001               
    88 r.92                  1997.41      -998.787               
    89 r.93                        2             2               
    90 r.94                       -2         -1001               
    91 r.95                 -4.00992      -999.881               
    92 r.96                     1000             2               
    93 r.97                    -1000         -1001               
    94 r.98                     2000       -998.14               
    95 r.99                        2             2               
    96 r.100                      -2         -1001               
    97 r.101                  -2.589      -999.569               
    98 r.102                    1000             2               
    99 r.103                   -1000         -1001               
   100 r.104                 1997.41      -996.144               
   101 r.105                 -995.78      -999.042               
   102 r.106                 4.21983      -992.258               
   103 r.107                  3.2819      -999.042               
   104 r.108                 1003.28      -992.258               
   105 r.109                -998.223      -998.223               
   106 r.110                  1.7768      -996.633               
   107 r.111                -998.223      -998.223               
   108 r.112                  1.7768      -996.633               
   109 r.113                       2             2               
   110 r.114                      -2         -1001               
   111 r.115               -0.958211      -998.369               
   112 r.116                    1000             2               
   113 r.117                   -1000         -1001               
   114 r.118                 2001.78      -996.906               
   115 r.119                       2             2               
   116 r.120                      -2         -1001               
   117 r.121                  1.1091      0.989978               
   118 r.122                    1000             2               
   119 r.123                   -1000         -1001               
   120 r.124                    2000       8.01657               
   121 r.125                       2             2               
   122 r.126                      -2         -1001               
   123 r.127                 4.12904      0.958211               
   124 r.128                    1000             2               
   125 r.129                   -1000         -1001               
   126 r.130                 2002.59       7.74197               
   127 r.131                       2             2               
   128 r.132                      -2         -1001               
   129 r.133                -999.881      -999.881               
   130 r.134                    1000             2               
   131 r.135                   -1000         -1001               
   132 r.136                 2002.59       -998.14               
   133 r.137                       2             2               
   134 r.138                      -2         -1001               
   135 r.139                 -998.46      -999.569               
   136 r.140                    1000             2               
   137 r.141                   -1000         -1001               
   138 r.142                    2000      -996.144               
   139 r.143                -999.909      -999.909               
   140 r.144                 1.63083      -998.787               
   141 r.145               -0.847144      -999.909               
   142 r.146                 1000.69      -998.787               
   143 r.147                -994.094      -998.223               
   144 r.148                 5.90584      -996.633               
   145 r.149                -995.634      -998.223               
   146 r.150                  4.3658      -996.633               
   147 r.151                -996.829      -998.369               
   148 r.152                 5.90584      -996.906               
   149 r.153                -998.369      -998.369               
   150 r.154                  4.3658      -996.906               
   151 r.155                       2             2               
   152 r.156                      -2         -1001               
   153 r.157                0.989978      0.989978               
   154 r.158                    1000             2               
   155 r.159                   -1000         -1001               
   156 r.160                 1997.41       8.01657               
   157 r.161                       2             2               
   158 r.162                      -2         -1001               
   159 r.163                 4.00992      0.958211               
   160 r.164                    1000             2               
   161 r.165                   -1000         -1001               
   162 r.166                    2000       7.74197               
   163 r.167                       2             2               
   164 r.168                      -2         -1001               
   165 r.169                 999.881      0.090789               
   166 r.170                    1000             2               
   167 r.171                   -1000         -1001               
   168 r.172                 1997.41       1.21343               
   169 r.173                       2             2               
   170 r.174                      -2         -1001               
   171 r.175                -998.579      -999.569               
   172 r.176                    1000             2               
   173 r.177                   -1000         -1001               
   174 r.178                 1997.41      -996.144               
   175 r.179                 -999.79      -999.881               
   176 r.180                 4.21983       -998.14               
   177 r.181               -0.728022      -999.881               
   178 r.182                 1003.28       -998.14               
   179 r.183                -994.213      -998.223               
   180 r.184                 5.78672      -996.633               
   181 r.185                -998.223      -998.223               
   182 r.186                  1.7768      -996.633               
   183 r.187                       2             2               
   184 r.188                      -2         -1001               
   185 r.189                -996.948      -998.369               
   186 r.190                    1000             2               
   187 r.191                   -1000         -1001               
   188 r.192                 2001.78      -996.906               
   189 r.193                       2             2               
   190 r.194                      -2         -1001               
   191 r.195                 999.569      0.989978               
   192 r.196                    1000             2               
   193 r.197                   -1000         -1001               
   194 r.198                    2000       8.01657               
   195 r.199                       2             2               
   196 r.200                      -2         -1001               
   197 r.201                   2.589      0.958211               
   198 r.202                    1000             2               
   199 r.203                   -1000         -1001               
   200 r.204                 2002.59       7.74197               
   201 r.205                       2             2               
   202 r.206                      -2         -1001               
   203 r.207                  998.46      0.090789               
   204 r.208                    1000             2               
   205 r.209                   -1000         -1001               
   206 r.210                    2000       1.21343               
   207 r.211                       2             2               
   208 r.212                      -2         -1001               
   209 r.213                 998.579      0.119122               
   210 r.214                    1000             2               
   211 r.215                   -1000         -1001               
   212 r.216                 2002.59       1.86016               
   213 r.217                -998.369      -999.569               
   214 r.218                 1.63083      -996.144               
   215 r.219                  0.6929      -999.569               
   216 r.220                 1000.69      -996.144               
   217 r.221                       2             2               
   218 r.222                      -2         -1001               
   219 r.223                -995.634      -998.223               
   220 r.224                    1000             2               
   221 r.225                   -1000         -1001               
   222 r.226                 2004.37      -996.633               
   223 r.227                -998.369      -998.369               
   224 r.228                  4.3658      -996.906               
   225 r.229                -998.369      -998.369               
   226 r.230                  4.3658      -996.906               
   227 r.231                -994.003      -998.223               
   228 r.232                 5.99663      -996.633               
   229 r.233                  5.0587      -998.223               
   230 r.234                 1005.06      -996.633               
   231 r.235                       2             2               
   232 r.236                      -2         -1001               
   233 r.237                 995.634      0.430944               
   234 r.238                    1000             2               
   235 r.239                   -1000         -1001               
   236 r.240                 1995.63       3.85628               
   237 r.241                       2             2               
   238 r.242                      -2         -1001               
   239 r.243                -2.73501      -998.369               
   240 r.244                    1000             2               
   241 r.245                   -1000         -1001               
   242 r.246                    2000      -996.906               
   243 r.247                       2             2               
   244 r.248                      -2         -1001               
   245 r.249                0.958211      0.958211               
   246 r.250                    1000             2               
   247 r.251                   -1000         -1001               
   248 r.252                 1998.22       7.74197               
   249 r.253                       2             2               
   250 r.254                      -2         -1001               
   251 r.255                 996.948      0.119122               
   252 r.256                    1000             2               
   253 r.257                   -1000         -1001               
   254 r.258                 1998.22       1.86016               
   255 r.259                       2             2               
   256 r.260                      -2         -1001               
   257 r.261                 2.73501        1.7768               
   258 r.262                    1000             2               
   259 r.263                   -1000         -1001               
   260 r.264                    2000       3.36681               

   No. Column name       Activity     Lower bound   Upper bound
------ ------------    ------------- ------------- -------------
     1 tt                     6.0683             0               
     2 s_1_1        *              1             0             1 
     3 t_1_1                 4.79674             0               
     4 s_1_8        *              1             0             1 
     5 s_1_7        *              1             0             1 
     6 s_2_1        *              0             0             1 
     7 t_2_1                  4.3658             0               
     8 s_2_8        *              0             0             1 
     9 s_2_7        *              0             0             1 
    10 s_1_2        *              1             0             1 
    11 t_1_2                  1.7768             0               
    12 s_2_2        *              0             0             1 
    13 t_2_2                  1.7768             0               
    14 s_1_3        *              1             0             1 
    15 t_1_3                 5.90584             0               
    16 s_2_3        *              0             0             1 
    17 t_2_3                  4.3658             0               
    18 s_1_4        *              1             0             1 
    19 t_1_4                 5.78672             0               
    20 s_2_4        *              0             0             1 
    21 t_2_4                  1.7768             0               
    22 s_1_5        *              1             0             1 
    23 t_1_5                  4.3658             0               
    24 s_2_5        *              0             0             1 
    25 t_2_5                  4.3658             0               
    26 s_1_6        *              1             0             1 
    27 t_1_6                 5.99663             0               
    28 s_2_6        *              0             0             1 
    29 t_2_6                 1005.06             0               
    30 t_1_7                       0             0               
    31 t_2_7                       0             0               
    32 t_1_8                 2.73501             0               
    33 t_2_8                       0             0               
    34 r_1_1_2      *              0             0             1 
    35 u_1_1_2      *              1             0             1 
    36 r_2_1_2      *              1             0             1 
    37 u_2_1_2      *              0             0             1 
    38 r_1_1_3      *              0             0             1 
    39 u_1_1_3      *              0             0             1 
    40 r_2_1_3      *              1             0             1 
    41 u_2_1_3      *              0             0             1 
    42 r_1_1_4      *              0             0             1 
    43 u_1_1_4      *              0             0             1 
    44 r_2_1_4      *              1             0             1 
    45 u_2_1_4      *              0             0             1 
    46 r_1_1_5      *              0             0             1 
    47 u_1_1_5      *              1             0             1 
    48 r_2_1_5      *              1             0             1 
    49 u_2_1_5      *              0             0             1 
    50 r_1_2_3      *              0             0             1 
    51 u_1_2_3      *              0             0             1 
    52 r_2_2_3      *              1             0             1 
    53 u_2_2_3      *              0             0             1 
    54 r_1_2_4      *              0             0             1 
    55 u_1_2_4      *              0             0             1 
    56 r_2_2_4      *              1             0             1 
    57 u_2_2_4      *              0             0             1 
    58 r_1_2_5      *              0             0             1 
    59 u_1_2_5      *              0             0             1 
    60 r_2_2_5      *              1             0             1 
    61 u_2_2_5      *              0             0             1 
    62 r_1_2_8      *              0             0             1 
    63 u_1_2_8      *              0             0             1 
    64 r_2_2_8      *              1             0             1 
    65 u_2_2_8      *              0             0             1 
    66 r_1_3_4      *              0             0             1 
    67 u_1_3_4      *              1             0             1 
    68 r_2_3_4      *              1             0             1 
    69 u_2_3_4      *              0             0             1 
    70 r_1_3_5      *              0             0             1 
    71 u_1_3_5      *              1             0             1 
    72 r_2_3_5      *              1             0             1 
    73 u_2_3_5      *              0             0             1 
    74 r_1_4_5      *              0             0             1 
    75 u_1_4_5      *              1             0             1 
    76 r_2_4_5      *              1             0             1 
    77 u_2_4_5      *              0             0             1 
    78 r_1_4_8      *              0             0             1 
    79 u_1_4_8      *              1             0             1 
    80 r_2_4_8      *              1             0             1 
    81 u_2_4_8      *              0             0             1 
    82 r_1_5_7      *              0             0             1 
    83 u_1_5_7      *              1             0             1 
    84 r_2_5_7      *              1             0             1 
    85 u_2_5_7      *              0             0             1 
    86 r_1_7_8      *              0             0             1 
    87 u_1_7_8      *              0             0             1 
    88 r_2_7_8      *              1             0             1 
    89 u_2_7_8      *              0             0             1 

Integer feasibility conditions:

KKT.PE: max.abs.err = 3.41e-13 on row 22
        max.rel.err = 1.69e-16 on row 22
        High quality

KKT.PB: max.abs.err = 1.14e-13 on row 22
        max.rel.err = 1.14e-16 on row 139
        High quality

End of output
